language ESSENCE' 1.0

letting n_courses be 108
letting n_periods be 25
letting prerequisite_RelationAsSet_Explicit_1 be
        [1, 1, 1, 1, 1, 1, 1, 1, 1, 1, 2, 2, 2, 2, 2, 2, 2, 2, 2, 2, 3, 3, 3, 3, 4, 4, 4, 4, 4, 4, 4, 5, 5, 5, 5, 5, 5,
         5, 6, 6, 6, 6, 7, 7, 7, 7, 8, 8, 8, 8, 9, 9, 9, 9, 9, 9, 9, 9, 9, 10, 10, 10, 10, 10, 10, 11, 11, 12, 12, 12,
         12, 12, 12, 13, 13, 13, 13, 13, 14, 14, 14, 14, 14, 15, 15, 15, 15, 16, 16, 17, 17, 17, 17, 17, 17, 18, 18, 19,
         19, 20, 20, 20, 20, 20, 20, 20, 21, 21, 21, 22, 22, 22, 22, 23, 23, 23, 23, 24, 24, 24, 25, 25, 25, 26, 26, 26,
         26, 26, 26, 27, 27, 27, 27, 28, 28, 28, 28, 28, 28, 29, 29, 29, 29, 29, 30, 30, 30, 30, 31, 32, 32, 32, 32, 32,
         33, 33, 33, 33, 33, 33, 33, 33, 33, 33, 34, 34, 34, 35, 35, 36, 36, 36, 36, 36, 36, 36, 36, 37, 37, 37, 37, 37,
         37, 37, 38, 38, 38, 38, 39, 39, 39, 39, 39, 39, 39, 40, 40, 40, 40, 40, 40, 40, 40, 40, 41, 41, 41, 41, 42, 42,
         42, 42, 42, 42, 42, 42, 42, 43, 43, 43, 43, 44, 44, 44, 44, 44, 44, 44, 45, 45, 45, 45, 45, 45, 46, 46, 46, 46,
         46, 46, 46, 46, 46, 46, 46, 46, 47, 47, 47, 47, 47, 47, 47, 48, 48, 48, 48, 48, 48, 48, 48, 48, 48, 48, 48, 48,
         49, 49, 49, 49, 49, 50, 50, 50, 50, 50, 50, 50, 50, 50, 51, 51, 51, 51, 51, 51, 51, 52, 52, 52, 52, 52, 52, 52,
         53, 53, 53, 53, 53, 53, 53, 54, 54, 54, 54, 55, 55, 55, 55, 55, 55, 55, 55, 56, 56, 56, 56, 56, 56, 56, 56, 56,
         56, 56, 56, 56, 57, 57, 57, 57, 57, 57, 58, 58, 58, 58, 58, 58, 58, 58, 58, 58, 59, 59, 59, 59, 59, 59, 59, 60,
         60, 60, 60, 61, 61, 61, 61, 61, 61, 61, 61, 62, 62, 62, 62, 62, 62, 62, 62, 62, 62, 63, 63, 63, 64, 64, 64, 64,
         64, 64, 64, 64, 65, 65, 65, 65, 65, 65, 65, 65, 65, 66, 66, 66, 66, 66, 66, 67, 67, 67, 67, 67, 67, 68, 68, 68,
         68, 69, 69, 69, 69, 69, 69, 69, 69, 69;
             int(1..416)]
letting prerequisite_RelationAsSet_Explicit_2 be
        [41, 43, 46, 55, 58, 60, 61, 62, 66, 69, 39, 41, 42, 50, 51, 53, 61, 62, 66, 67, 41, 51, 52, 57, 46, 49, 50, 51,
         59, 61, 66, 41, 42, 53, 58, 63, 65, 69, 47, 54, 60, 61, 42, 44, 58, 63, 42, 44, 45, 47, 41, 42, 44, 48, 50, 54,
         57, 61, 62, 40, 41, 46, 47, 58, 65, 45, 63, 40, 45, 48, 49, 50, 58, 41, 43, 46, 55, 56, 40, 42, 50, 56, 66, 45,
         60, 64, 69, 40, 41, 40, 45, 46, 64, 66, 67, 43, 46, 43, 48, 43, 50, 56, 58, 61, 62, 67, 48, 57, 64, 48, 49, 67,
         68, 41, 53, 58, 66, 40, 61, 67, 39, 43, 58, 40, 41, 45, 48, 57, 69, 50, 56, 60, 69, 41, 45, 46, 47, 55, 65, 45,
         47, 60, 67, 69, 41, 43, 50, 55, 59, 43, 46, 55, 65, 68, 42, 43, 44, 46, 50, 51, 59, 61, 62, 65, 39, 47, 68, 50,
         58, 40, 43, 45, 47, 49, 50, 55, 62, 39, 44, 51, 55, 62, 66, 69, 48, 59, 61, 63, 70, 80, 84, 90, 98, 100, 105,
         83, 85, 91, 93, 95, 96, 100, 102, 104, 73, 78, 86, 93, 72, 74, 75, 78, 79, 81, 85, 89, 90, 85, 90, 98, 107, 72,
         85, 87, 90, 94, 97, 107, 71, 74, 81, 96, 104, 108, 71, 77, 84, 86, 87, 93, 95, 96, 100, 101, 102, 105, 76, 90,
         93, 96, 101, 103, 108, 72, 77, 84, 90, 91, 93, 94, 96, 97, 99, 101, 102, 107, 80, 88, 97, 104, 108, 75, 76, 79,
         80, 89, 92, 98, 100, 108, 70, 74, 75, 79, 84, 85, 96, 70, 72, 77, 79, 84, 86, 103, 72, 76, 83, 86, 94, 95, 105,
         70, 76, 84, 95, 72, 74, 75, 83, 90, 97, 100, 103, 72, 74, 78, 81, 82, 83, 86, 87, 88, 89, 105, 106, 108, 70,
         74, 85, 93, 101, 103, 73, 75, 80, 82, 86, 87, 89, 99, 106, 108, 80, 84, 88, 93, 95, 99, 105, 86, 95, 97, 107,
         71, 73, 85, 91, 92, 94, 106, 107, 70, 72, 76, 84, 85, 93, 103, 104, 105, 108, 79, 81, 82, 77, 78, 80, 86, 88,
         95, 107, 108, 70, 71, 72, 73, 76, 83, 91, 94, 96, 75, 89, 94, 101, 102, 104, 71, 86, 89, 93, 101, 105, 84, 85,
         93, 106, 70, 78, 81, 82, 85, 86, 88, 96, 98;
             int(1..416)]
letting course_load_Function1D be
        [4, 2, 2, 4, 7, 3, 6, 4, 6, 2, 2, 5, 3, 4, 6, 6, 4, 5, 3, 6, 7, 6, 7, 4, 3, 2, 4, 5, 6, 3, 3, 3, 7, 2, 7, 3, 5,
         4, 3, 2, 2, 2, 5, 4, 3, 3, 3, 4, 7, 4, 3, 2, 7, 7, 6, 7, 2, 5, 4, 3, 2, 6, 2, 2, 4, 5, 4, 7, 6, 5, 2, 6, 4, 6,
         4, 2, 2, 2, 5, 4, 4, 3, 2, 5, 5, 3, 5, 4, 6, 4, 2, 5, 2, 4, 3, 6, 4, 5, 3, 4, 4, 6, 2, 6, 2, 3, 2, 6;
             int(1..108)]
letting load_per_period_ub be 45
letting load_per_period_lb be 7
letting courses_per_period_ub be 9
letting courses_per_period_lb be 4
letting fin1 be 416
letting fin2 be 108
letting fin3 be 7
